commons/LK_FILES/TIC50-10-10-3.tsp
NAME: TIC50-10-10-3
TYPE: TSP
COMMENT: TSP
DIMENSION: 7
EDGE_WEIGHT_TYPE: EXPLICIT
EDGE_WEIGHT_FORMAT: FULL_MATRIX
EDGE_WEIGHT_SECTION
0 440 128 103 361 246 84 
440 0 233 488 121 468 153 
128 233 0 93 255 494 208 
103 488 93 0 165 89 126 
361 121 255 165 0 431 86 
246 468 494 89 431 0 89 
84 153 208 126 86 89 0 
EOF
