commons/LK_FILES/TIC50-10-10-3.tour
NAME : TIC50-10-10-3.849.tour
COMMENT : Length = 849
COMMENT : Found by LKH [Keld Helsgaun] Thu Dec 15 16:56:56 2016
TYPE : TOUR
DIMENSION : 7
TOUR_SECTION
1
3
2
5
7
6
4
-1
EOF
